g3 0 1 0	# problem grouping
 100 125 1 0 125	# vars, constraints, objectives, ranges, eqns
 100 1	# nonlinear constraints, objectives
 0 0	# network constraints: nonlinear, linear
 100 100 100	# nonlinear vars in constraints, objectives, both
 0 0 0 1	# linear network variables; functions; arith, flags
 0 0 0 0 0	# discrete variables: binary, integer, nonlinear (b,c,o)
 300 100	# nonzeros in Jacobian, gradients
 0 0	# max name lengths: constraints, variables
 0 0 0 0 0	# common exprs: b,c,o,c1,o1
b
0 0 1
0 0 1
0 0 1
0 0 1
0 0 1
0 0 1
0 0 1
0 0 1
0 0 1
0 0 1
0 0 1
0 0 1
0 0 1
0 0 1
0 0 1
0 0 1
0 0 1
0 0 1
0 0 1
0 0 1
0 0 1
0 0 1
0 0 1
0 0 1
0 0 1
0 0 1
0 0 1
0 0 1
0 0 1
0 0 1
0 0 1
0 0 1
0 0 1
0 0 1
0 0 1
0 0 1
0 0 1
0 0 1
0 0 1
0 0 1
0 0 1
0 0 1
0 0 1
0 0 1
0 0 1
0 0 1
0 0 1
0 0 1
0 0 1
0 0 1
0 0 1
0 0 1
0 0 1
0 0 1
0 0 1
0 0 1
0 0 1
0 0 1
0 0 1
0 0 1
0 0 1
0 0 1
0 0 1
0 0 1
0 0 1
0 0 1
0 0 1
0 0 1
0 0 1
0 0 1
0 0 1
0 0 1
0 0 1
0 0 1
0 0 1
0 0 1
0 0 1
0 0 1
0 0 1
0 0 1
0 0 1
0 0 1
0 0 1
0 0 1
0 0 1
0 0 1
0 0 1
0 0 1
0 0 1
0 0 1
0 0 1
0 0 1
0 0 1
0 0 1
0 0 1
0 0 1
0 0 1
0 0 1
0 0 1
0 0 1
x20
0 1
5 1
10 1
15 1
21 1
26 1
31 1
36 1
42 1
47 1
52 1
57 1
63 1
68 1
73 1
78 1
84 1
89 1
94 1
99 1
r
4 0
4 0
4 0
4 0
4 0
4 0
4 0
4 0
4 0
4 0
4 0
4 0
4 0
4 0
4 0
4 0
4 0
4 0
4 0
4 0
4 0
4 0
4 0
4 0
4 0
4 0
4 0
4 0
4 0
4 0
4 0
4 0
4 0
4 0
4 0
4 0
4 0
4 0
4 0
4 0
4 0
4 0
4 0
4 0
4 0
4 0
4 0
4 0
4 0
4 0
4 0
4 0
4 0
4 0
4 0
4 0
4 0
4 0
4 0
4 0
4 0
4 0
4 0
4 0
4 0
4 0
4 0
4 0
4 0
4 0
4 0
4 0
4 0
4 0
4 0
4 0
4 0
4 0
4 0
4 0
4 0
4 0
4 0
4 0
4 0
4 0
4 0
4 0
4 0
4 0
4 0
4 0
4 0
4 0
4 0
4 0
4 0
4 0
4 0
4 0
4 4
4 4
4 4
4 4
4 4
4 1
4 1
4 1
4 1
4 1
4 1
4 1
4 1
4 1
4 1
4 1
4 1
4 1
4 1
4 1
4 1
4 1
4 1
4 1
4 1
C0
o2
v0
o0
n-1
v0
C1
o2
v1
o0
n-1
v1
C2
o2
v2
o0
n-1
v2
C3
o2
v3
o0
n-1
v3
C4
o2
v4
o0
n-1
v4
C5
o2
v5
o0
n-1
v5
C6
o2
v6
o0
n-1
v6
C7
o2
v7
o0
n-1
v7
C8
o2
v8
o0
n-1
v8
C9
o2
v9
o0
n-1
v9
C10
o2
v10
o0
n-1
v10
C11
o2
v11
o0
n-1
v11
C12
o2
v12
o0
n-1
v12
C13
o2
v13
o0
n-1
v13
C14
o2
v14
o0
n-1
v14
C15
o2
v15
o0
n-1
v15
C16
o2
v16
o0
n-1
v16
C17
o2
v17
o0
n-1
v17
C18
o2
v18
o0
n-1
v18
C19
o2
v19
o0
n-1
v19
C20
o2
v20
o0
n-1
v20
C21
o2
v21
o0
n-1
v21
C22
o2
v22
o0
n-1
v22
C23
o2
v23
o0
n-1
v23
C24
o2
v24
o0
n-1
v24
C25
o2
v25
o0
n-1
v25
C26
o2
v26
o0
n-1
v26
C27
o2
v27
o0
n-1
v27
C28
o2
v28
o0
n-1
v28
C29
o2
v29
o0
n-1
v29
C30
o2
v30
o0
n-1
v30
C31
o2
v31
o0
n-1
v31
C32
o2
v32
o0
n-1
v32
C33
o2
v33
o0
n-1
v33
C34
o2
v34
o0
n-1
v34
C35
o2
v35
o0
n-1
v35
C36
o2
v36
o0
n-1
v36
C37
o2
v37
o0
n-1
v37
C38
o2
v38
o0
n-1
v38
C39
o2
v39
o0
n-1
v39
C40
o2
v40
o0
n-1
v40
C41
o2
v41
o0
n-1
v41
C42
o2
v42
o0
n-1
v42
C43
o2
v43
o0
n-1
v43
C44
o2
v44
o0
n-1
v44
C45
o2
v45
o0
n-1
v45
C46
o2
v46
o0
n-1
v46
C47
o2
v47
o0
n-1
v47
C48
o2
v48
o0
n-1
v48
C49
o2
v49
o0
n-1
v49
C50
o2
v50
o0
n-1
v50
C51
o2
v51
o0
n-1
v51
C52
o2
v52
o0
n-1
v52
C53
o2
v53
o0
n-1
v53
C54
o2
v54
o0
n-1
v54
C55
o2
v55
o0
n-1
v55
C56
o2
v56
o0
n-1
v56
C57
o2
v57
o0
n-1
v57
C58
o2
v58
o0
n-1
v58
C59
o2
v59
o0
n-1
v59
C60
o2
v60
o0
n-1
v60
C61
o2
v61
o0
n-1
v61
C62
o2
v62
o0
n-1
v62
C63
o2
v63
o0
n-1
v63
C64
o2
v64
o0
n-1
v64
C65
o2
v65
o0
n-1
v65
C66
o2
v66
o0
n-1
v66
C67
o2
v67
o0
n-1
v67
C68
o2
v68
o0
n-1
v68
C69
o2
v69
o0
n-1
v69
C70
o2
v70
o0
n-1
v70
C71
o2
v71
o0
n-1
v71
C72
o2
v72
o0
n-1
v72
C73
o2
v73
o0
n-1
v73
C74
o2
v74
o0
n-1
v74
C75
o2
v75
o0
n-1
v75
C76
o2
v76
o0
n-1
v76
C77
o2
v77
o0
n-1
v77
C78
o2
v78
o0
n-1
v78
C79
o2
v79
o0
n-1
v79
C80
o2
v80
o0
n-1
v80
C81
o2
v81
o0
n-1
v81
C82
o2
v82
o0
n-1
v82
C83
o2
v83
o0
n-1
v83
C84
o2
v84
o0
n-1
v84
C85
o2
v85
o0
n-1
v85
C86
o2
v86
o0
n-1
v86
C87
o2
v87
o0
n-1
v87
C88
o2
v88
o0
n-1
v88
C89
o2
v89
o0
n-1
v89
C90
o2
v90
o0
n-1
v90
C91
o2
v91
o0
n-1
v91
C92
o2
v92
o0
n-1
v92
C93
o2
v93
o0
n-1
v93
C94
o2
v94
o0
n-1
v94
C95
o2
v95
o0
n-1
v95
C96
o2
v96
o0
n-1
v96
C97
o2
v97
o0
n-1
v97
C98
o2
v98
o0
n-1
v98
C99
o2
v99
o0
n-1
v99
C100
n0
C101
n0
C102
n0
C103
n0
C104
n0
C105
n0
C106
n0
C107
n0
C108
n0
C109
n0
C110
n0
C111
n0
C112
n0
C113
n0
C114
n0
C115
n0
C116
n0
C117
n0
C118
n0
C119
n0
C120
n0
C121
n0
C122
n0
C123
n0
C124
n0
O0 0
o54
10
o2
o0
n-17.1
o54
20
o2
n4.37
v0
o2
n4.56
v5
o2
n4.26
v10
o2
n4.56
v15
o2
n4.3
v20
o2
n4.46
v25
o2
n3.84
v30
o2
n4.57
v35
o2
n4.26
v40
o2
n4.37
v45
o2
n3.49
v50
o2
n4.43
v55
o2
n4.48
v60
o2
n4.01
v65
o2
n4.29
v70
o2
n4.42
v75
o2
n4.23
v80
o2
n4.42
v85
o2
n4.23
v90
o2
n3.49
v95
o0
n-17.1
o54
20
o2
n4.37
v0
o2
n4.56
v5
o2
n4.26
v10
o2
n4.56
v15
o2
n4.3
v20
o2
n4.46
v25
o2
n3.84
v30
o2
n4.57
v35
o2
n4.26
v40
o2
n4.37
v45
o2
n3.49
v50
o2
n4.43
v55
o2
n4.48
v60
o2
n4.01
v65
o2
n4.29
v70
o2
n4.42
v75
o2
n4.23
v80
o2
n4.42
v85
o2
n4.23
v90
o2
n3.49
v95
o2
o0
n-20.1
o54
20
o2
n5.23
v0
o2
n5.74
v5
o2
n4.93
v10
o2
n5.74
v15
o2
n5.19
v20
o2
n5.46
v25
o2
n4.65
v30
o2
n5.27
v35
o2
n5.57
v40
o2
n5.12
v45
o2
n5.73
v50
o2
n5.45
v55
o2
n5.42
v60
o2
n4.05
v65
o2
n4.26
v70
o2
n4.58
v75
o2
n3.94
v80
o2
n4.18
v85
o2
n4.18
v90
o2
n5.89
v95
o0
n-20.1
o54
20
o2
n5.23
v0
o2
n5.74
v5
o2
n4.93
v10
o2
n5.74
v15
o2
n5.19
v20
o2
n5.46
v25
o2
n4.65
v30
o2
n5.27
v35
o2
n5.57
v40
o2
n5.12
v45
o2
n5.73
v50
o2
n5.45
v55
o2
n5.42
v60
o2
n4.05
v65
o2
n4.26
v70
o2
n4.58
v75
o2
n3.94
v80
o2
n4.18
v85
o2
n4.18
v90
o2
n5.89
v95
o2
o0
n-17.1
o54
20
o2
n4.37
v1
o2
n4.56
v6
o2
n4.26
v11
o2
n4.56
v16
o2
n4.3
v21
o2
n4.46
v26
o2
n3.84
v31
o2
n4.57
v36
o2
n4.26
v41
o2
n4.37
v46
o2
n3.49
v51
o2
n4.43
v56
o2
n4.48
v61
o2
n4.01
v66
o2
n4.29
v71
o2
n4.42
v76
o2
n4.23
v81
o2
n4.42
v86
o2
n4.23
v91
o2
n3.49
v96
o0
n-17.1
o54
20
o2
n4.37
v1
o2
n4.56
v6
o2
n4.26
v11
o2
n4.56
v16
o2
n4.3
v21
o2
n4.46
v26
o2
n3.84
v31
o2
n4.57
v36
o2
n4.26
v41
o2
n4.37
v46
o2
n3.49
v51
o2
n4.43
v56
o2
n4.48
v61
o2
n4.01
v66
o2
n4.29
v71
o2
n4.42
v76
o2
n4.23
v81
o2
n4.42
v86
o2
n4.23
v91
o2
n3.49
v96
o2
o0
n-20.1
o54
20
o2
n5.23
v1
o2
n5.74
v6
o2
n4.93
v11
o2
n5.74
v16
o2
n5.19
v21
o2
n5.46
v26
o2
n4.65
v31
o2
n5.27
v36
o2
n5.57
v41
o2
n5.12
v46
o2
n5.73
v51
o2
n5.45
v56
o2
n5.42
v61
o2
n4.05
v66
o2
n4.26
v71
o2
n4.58
v76
o2
n3.94
v81
o2
n4.18
v86
o2
n4.18
v91
o2
n5.89
v96
o0
n-20.1
o54
20
o2
n5.23
v1
o2
n5.74
v6
o2
n4.93
v11
o2
n5.74
v16
o2
n5.19
v21
o2
n5.46
v26
o2
n4.65
v31
o2
n5.27
v36
o2
n5.57
v41
o2
n5.12
v46
o2
n5.73
v51
o2
n5.45
v56
o2
n5.42
v61
o2
n4.05
v66
o2
n4.26
v71
o2
n4.58
v76
o2
n3.94
v81
o2
n4.18
v86
o2
n4.18
v91
o2
n5.89
v96
o2
o0
n-17.1
o54
20
o2
n4.37
v2
o2
n4.56
v7
o2
n4.26
v12
o2
n4.56
v17
o2
n4.3
v22
o2
n4.46
v27
o2
n3.84
v32
o2
n4.57
v37
o2
n4.26
v42
o2
n4.37
v47
o2
n3.49
v52
o2
n4.43
v57
o2
n4.48
v62
o2
n4.01
v67
o2
n4.29
v72
o2
n4.42
v77
o2
n4.23
v82
o2
n4.42
v87
o2
n4.23
v92
o2
n3.49
v97
o0
n-17.1
o54
20
o2
n4.37
v2
o2
n4.56
v7
o2
n4.26
v12
o2
n4.56
v17
o2
n4.3
v22
o2
n4.46
v27
o2
n3.84
v32
o2
n4.57
v37
o2
n4.26
v42
o2
n4.37
v47
o2
n3.49
v52
o2
n4.43
v57
o2
n4.48
v62
o2
n4.01
v67
o2
n4.29
v72
o2
n4.42
v77
o2
n4.23
v82
o2
n4.42
v87
o2
n4.23
v92
o2
n3.49
v97
o2
o0
n-20.1
o54
20
o2
n5.23
v2
o2
n5.74
v7
o2
n4.93
v12
o2
n5.74
v17
o2
n5.19
v22
o2
n5.46
v27
o2
n4.65
v32
o2
n5.27
v37
o2
n5.57
v42
o2
n5.12
v47
o2
n5.73
v52
o2
n5.45
v57
o2
n5.42
v62
o2
n4.05
v67
o2
n4.26
v72
o2
n4.58
v77
o2
n3.94
v82
o2
n4.18
v87
o2
n4.18
v92
o2
n5.89
v97
o0
n-20.1
o54
20
o2
n5.23
v2
o2
n5.74
v7
o2
n4.93
v12
o2
n5.74
v17
o2
n5.19
v22
o2
n5.46
v27
o2
n4.65
v32
o2
n5.27
v37
o2
n5.57
v42
o2
n5.12
v47
o2
n5.73
v52
o2
n5.45
v57
o2
n5.42
v62
o2
n4.05
v67
o2
n4.26
v72
o2
n4.58
v77
o2
n3.94
v82
o2
n4.18
v87
o2
n4.18
v92
o2
n5.89
v97
o2
o0
n-17.1
o54
20
o2
n4.37
v3
o2
n4.56
v8
o2
n4.26
v13
o2
n4.56
v18
o2
n4.3
v23
o2
n4.46
v28
o2
n3.84
v33
o2
n4.57
v38
o2
n4.26
v43
o2
n4.37
v48
o2
n3.49
v53
o2
n4.43
v58
o2
n4.48
v63
o2
n4.01
v68
o2
n4.29
v73
o2
n4.42
v78
o2
n4.23
v83
o2
n4.42
v88
o2
n4.23
v93
o2
n3.49
v98
o0
n-17.1
o54
20
o2
n4.37
v3
o2
n4.56
v8
o2
n4.26
v13
o2
n4.56
v18
o2
n4.3
v23
o2
n4.46
v28
o2
n3.84
v33
o2
n4.57
v38
o2
n4.26
v43
o2
n4.37
v48
o2
n3.49
v53
o2
n4.43
v58
o2
n4.48
v63
o2
n4.01
v68
o2
n4.29
v73
o2
n4.42
v78
o2
n4.23
v83
o2
n4.42
v88
o2
n4.23
v93
o2
n3.49
v98
o2
o0
n-20.1
o54
20
o2
n5.23
v3
o2
n5.74
v8
o2
n4.93
v13
o2
n5.74
v18
o2
n5.19
v23
o2
n5.46
v28
o2
n4.65
v33
o2
n5.27
v38
o2
n5.57
v43
o2
n5.12
v48
o2
n5.73
v53
o2
n5.45
v58
o2
n5.42
v63
o2
n4.05
v68
o2
n4.26
v73
o2
n4.58
v78
o2
n3.94
v83
o2
n4.18
v88
o2
n4.18
v93
o2
n5.89
v98
o0
n-20.1
o54
20
o2
n5.23
v3
o2
n5.74
v8
o2
n4.93
v13
o2
n5.74
v18
o2
n5.19
v23
o2
n5.46
v28
o2
n4.65
v33
o2
n5.27
v38
o2
n5.57
v43
o2
n5.12
v48
o2
n5.73
v53
o2
n5.45
v58
o2
n5.42
v63
o2
n4.05
v68
o2
n4.26
v73
o2
n4.58
v78
o2
n3.94
v83
o2
n4.18
v88
o2
n4.18
v93
o2
n5.89
v98
o2
o0
n-17.1
o54
20
o2
n4.37
v4
o2
n4.56
v9
o2
n4.26
v14
o2
n4.56
v19
o2
n4.3
v24
o2
n4.46
v29
o2
n3.84
v34
o2
n4.57
v39
o2
n4.26
v44
o2
n4.37
v49
o2
n3.49
v54
o2
n4.43
v59
o2
n4.48
v64
o2
n4.01
v69
o2
n4.29
v74
o2
n4.42
v79
o2
n4.23
v84
o2
n4.42
v89
o2
n4.23
v94
o2
n3.49
v99
o0
n-17.1
o54
20
o2
n4.37
v4
o2
n4.56
v9
o2
n4.26
v14
o2
n4.56
v19
o2
n4.3
v24
o2
n4.46
v29
o2
n3.84
v34
o2
n4.57
v39
o2
n4.26
v44
o2
n4.37
v49
o2
n3.49
v54
o2
n4.43
v59
o2
n4.48
v64
o2
n4.01
v69
o2
n4.29
v74
o2
n4.42
v79
o2
n4.23
v84
o2
n4.42
v89
o2
n4.23
v94
o2
n3.49
v99
o2
o0
n-20.1
o54
20
o2
n5.23
v4
o2
n5.74
v9
o2
n4.93
v14
o2
n5.74
v19
o2
n5.19
v24
o2
n5.46
v29
o2
n4.65
v34
o2
n5.27
v39
o2
n5.57
v44
o2
n5.12
v49
o2
n5.73
v54
o2
n5.45
v59
o2
n5.42
v64
o2
n4.05
v69
o2
n4.26
v74
o2
n4.58
v79
o2
n3.94
v84
o2
n4.18
v89
o2
n4.18
v94
o2
n5.89
v99
o0
n-20.1
o54
20
o2
n5.23
v4
o2
n5.74
v9
o2
n4.93
v14
o2
n5.74
v19
o2
n5.19
v24
o2
n5.46
v29
o2
n4.65
v34
o2
n5.27
v39
o2
n5.57
v44
o2
n5.12
v49
o2
n5.73
v54
o2
n5.45
v59
o2
n5.42
v64
o2
n4.05
v69
o2
n4.26
v74
o2
n4.58
v79
o2
n3.94
v84
o2
n4.18
v89
o2
n4.18
v94
o2
n5.89
v99
k99
3
6
9
12
15
18
21
24
27
30
33
36
39
42
45
48
51
54
57
60
63
66
69
72
75
78
81
84
87
90
93
96
99
102
105
108
111
114
117
120
123
126
129
132
135
138
141
144
147
150
153
156
159
162
165
168
171
174
177
180
183
186
189
192
195
198
201
204
207
210
213
216
219
222
225
228
231
234
237
240
243
246
249
252
255
258
261
264
267
270
273
276
279
282
285
288
291
294
297
J0 1
0 0
J1 1
1 0
J2 1
2 0
J3 1
3 0
J4 1
4 0
J5 1
5 0
J6 1
6 0
J7 1
7 0
J8 1
8 0
J9 1
9 0
J10 1
10 0
J11 1
11 0
J12 1
12 0
J13 1
13 0
J14 1
14 0
J15 1
15 0
J16 1
16 0
J17 1
17 0
J18 1
18 0
J19 1
19 0
J20 1
20 0
J21 1
21 0
J22 1
22 0
J23 1
23 0
J24 1
24 0
J25 1
25 0
J26 1
26 0
J27 1
27 0
J28 1
28 0
J29 1
29 0
J30 1
30 0
J31 1
31 0
J32 1
32 0
J33 1
33 0
J34 1
34 0
J35 1
35 0
J36 1
36 0
J37 1
37 0
J38 1
38 0
J39 1
39 0
J40 1
40 0
J41 1
41 0
J42 1
42 0
J43 1
43 0
J44 1
44 0
J45 1
45 0
J46 1
46 0
J47 1
47 0
J48 1
48 0
J49 1
49 0
J50 1
50 0
J51 1
51 0
J52 1
52 0
J53 1
53 0
J54 1
54 0
J55 1
55 0
J56 1
56 0
J57 1
57 0
J58 1
58 0
J59 1
59 0
J60 1
60 0
J61 1
61 0
J62 1
62 0
J63 1
63 0
J64 1
64 0
J65 1
65 0
J66 1
66 0
J67 1
67 0
J68 1
68 0
J69 1
69 0
J70 1
70 0
J71 1
71 0
J72 1
72 0
J73 1
73 0
J74 1
74 0
J75 1
75 0
J76 1
76 0
J77 1
77 0
J78 1
78 0
J79 1
79 0
J80 1
80 0
J81 1
81 0
J82 1
82 0
J83 1
83 0
J84 1
84 0
J85 1
85 0
J86 1
86 0
J87 1
87 0
J88 1
88 0
J89 1
89 0
J90 1
90 0
J91 1
91 0
J92 1
92 0
J93 1
93 0
J94 1
94 0
J95 1
95 0
J96 1
96 0
J97 1
97 0
J98 1
98 0
J99 1
99 0
J100 20
0 1
5 1
10 1
15 1
20 1
25 1
30 1
35 1
40 1
45 1
50 1
55 1
60 1
65 1
70 1
75 1
80 1
85 1
90 1
95 1
J101 20
1 1
6 1
11 1
16 1
21 1
26 1
31 1
36 1
41 1
46 1
51 1
56 1
61 1
66 1
71 1
76 1
81 1
86 1
91 1
96 1
J102 20
2 1
7 1
12 1
17 1
22 1
27 1
32 1
37 1
42 1
47 1
52 1
57 1
62 1
67 1
72 1
77 1
82 1
87 1
92 1
97 1
J103 20
3 1
8 1
13 1
18 1
23 1
28 1
33 1
38 1
43 1
48 1
53 1
58 1
63 1
68 1
73 1
78 1
83 1
88 1
93 1
98 1
J104 20
4 1
9 1
14 1
19 1
24 1
29 1
34 1
39 1
44 1
49 1
54 1
59 1
64 1
69 1
74 1
79 1
84 1
89 1
94 1
99 1
J105 5
0 1
1 1
2 1
3 1
4 1
J106 5
5 1
6 1
7 1
8 1
9 1
J107 5
10 1
11 1
12 1
13 1
14 1
J108 5
15 1
16 1
17 1
18 1
19 1
J109 5
20 1
21 1
22 1
23 1
24 1
J110 5
25 1
26 1
27 1
28 1
29 1
J111 5
30 1
31 1
32 1
33 1
34 1
J112 5
35 1
36 1
37 1
38 1
39 1
J113 5
40 1
41 1
42 1
43 1
44 1
J114 5
45 1
46 1
47 1
48 1
49 1
J115 5
50 1
51 1
52 1
53 1
54 1
J116 5
55 1
56 1
57 1
58 1
59 1
J117 5
60 1
61 1
62 1
63 1
64 1
J118 5
65 1
66 1
67 1
68 1
69 1
J119 5
70 1
71 1
72 1
73 1
74 1
J120 5
75 1
76 1
77 1
78 1
79 1
J121 5
80 1
81 1
82 1
83 1
84 1
J122 5
85 1
86 1
87 1
88 1
89 1
J123 5
90 1
91 1
92 1
93 1
94 1
J124 5
95 1
96 1
97 1
98 1
99 1
G0 100
0 0
1 0
2 0
3 0
4 0
5 0
6 0
7 0
8 0
9 0
10 0
11 0
12 0
13 0
14 0
15 0
16 0
17 0
18 0
19 0
20 0
21 0
22 0
23 0
24 0
25 0
26 0
27 0
28 0
29 0
30 0
31 0
32 0
33 0
34 0
35 0
36 0
37 0
38 0
39 0
40 0
41 0
42 0
43 0
44 0
45 0
46 0
47 0
48 0
49 0
50 0
51 0
52 0
53 0
54 0
55 0
56 0
57 0
58 0
59 0
60 0
61 0
62 0
63 0
64 0
65 0
66 0
67 0
68 0
69 0
70 0
71 0
72 0
73 0
74 0
75 0
76 0
77 0
78 0
79 0
80 0
81 0
82 0
83 0
84 0
85 0
86 0
87 0
88 0
89 0
90 0
91 0
92 0
93 0
94 0
95 0
96 0
97 0
98 0
99 0
